New_Crystal
1.0
        6.3500000000         0.0000000000         0.0000000000
        0.0000000000         6.3500000000         0.0000000000
        0.0000000000         0.0000000000         6.3500000000
    C    H
    1    3
Cartesian
3.17500000	3.17500000	3.17500000
2.54626556	2.54626556	2.54626556
3.80373444	3.80373444	2.54626556
2.54626556	3.80373444	3.80373444