New_Crystal                             
   1.00000000000000     
     6.3499999999999996    0.0000000000000000    0.0000000000000000
     0.0000000000000000    6.3499999999999996    0.0000000000000000
     0.0000000000000000    0.0000000000000000    6.3499999999999996
   C    H 
     1     4
Direct
  0.5000000000000000  0.5000000000000000  0.5000000000000000
  0.4009867023622036  0.4009867023622036  0.4009867023622036
  0.5990132976377964  0.5990132976377964  0.4009867023622036
  0.4009867023622036  0.5990132976377964  0.5990132976377964
  0.5990132976377964  0.4009867023622036  0.5990132976377964
 
  0.00000000E+00  0.00000000E+00  0.00000000E+00
  0.00000000E+00  0.00000000E+00  0.00000000E+00
  0.00000000E+00  0.00000000E+00  0.00000000E+00
  0.00000000E+00  0.00000000E+00  0.00000000E+00
  0.00000000E+00  0.00000000E+00  0.00000000E+00
