Polyynes                                
   1.00000000000000     
     2.6499999999999999    0.0000000000000000    0.0000000000000000
     0.0000000000000000    4.0000000000000000    0.0000000000000000
     0.0000000000000000    0.0000000000000000    4.0000000000000000
   C 
     2
Direct
  0.2735849056603783  0.5000000000000000  0.5000000000000000
  0.7264150943396217  0.5000000000000000  0.5000000000000000
 
  0.00000000E+00  0.00000000E+00  0.00000000E+00
  0.00000000E+00  0.00000000E+00  0.00000000E+00
