SYSTEM = Screening bandgap

# General
ISTART = 1
ISYM = 0
LREAL= .FALSE.
PREC = Normal
ISMEAR = 0
SIGMA = 0.05
ENCUT = 300
EDIFF = 1E-04
ISPIN = 1
LORBIT = 12

LWANNIER90_RUN=.TRUE.
LWRITE_UNK= .TRUE.
LWRITE_MMN_AMN = .TRUE.

#XC functionals
GGA     = PE 

# parallelization

