Polyynes
1.0
        2.6500000000         0.0000000000         0.0000000000
        0.0000000000         4.0000000000         0.0000000000
        0.0000000000         0.0000000000         4.0000000000
    C
    2
Cartesian
0.725 2.000 2.000
1.925 2.000 2.000
