New_Crystal                             
   1.00000000000000     
     3.0000000000000000    0.0000000000000000    0.0000000000000000
     0.0000000000000000    3.0000000000000000    0.0000000000000000
     0.0000000000000000    0.0000000000000000    3.0000000000000000
   H 
     2
Direct
  0.5000000000000000  0.5000000000000000  0.3333333333333357
  0.5000000000000000  0.5000000000000000  0.6666666666666643
 
  0.00000000E+00  0.00000000E+00  0.00000000E+00
  0.00000000E+00  0.00000000E+00  0.00000000E+00
