New_Crystal
1.0
        3.0000000000         0.0000000000         0.0000000000
        0.0000000000         3.0000000000         0.0000000000
        0.0000000000         0.0000000000         3.0000000000
    H
    2
Cartesian
1.5	1.5 1.0
1.5 1.5 2.0

